100 100 100
50
100 97 80
59 78 75
45 99 88
96 86 70
66 59 51
30 69 88
100 69 59
65 98 55
68 23 93
89 99 95
77 7 93
21 22 43
79 49 77
71 54 85
84 94 59
20 72 100
11 93 93
74 65 65
14 8 42
88 89 43
72 51 85
5 80 99
55 51 77
10 66 84
85 37 66
84 43 67
83 3 74
88 84 77
91 68 78
49 97 98
59 76 99
54 100 87
86 75 66
88 70 73
92 98 15
88 80 8
63 100 56
14 90 67
64 59 92
74 50 55
79 99 90
79 23 80
66 60 62
71 94 91
92 69 58
82 46 84
91 92 84
59 91 74
73 26 74
12 9 42
